17	4
15	16	16	15	
0	0	0	0	0	3	2	3	4	
9	1	6	2	3	3	7	17	17	
4	5	2	10	6	2	6	12	
9	2	3	3	9	3	5	9	17	
8	6	4	7	1	3	10	17	17	
100	2	6	8	9	3	13	14	17	
50	7	7	5	6	1	8	
100	9	6	9	10	3	11	15	17	
50	8	5	2	6	3	14	15	17	
100	1	4	1	10	3	16	17	17	
175	9	9	8	9	3	16	17	17	
125	5	5	3	5	2	17	17	
10	5	7	3	2	1	17	
5	4	7	6	4	1	17	
2	4	2	2	10	3	17	17	17	
9	5	6	9	9	2	17	17	
0	0	0	0	0	0	
